10
0 29 86 47 51 81 12 77 12 38 
29 0 85 77 15 3 68 21 74 5 
86 85 0 37 48 20 52 6 24 25 
47 77 37 0 7 47 86 1 36 100 
51 15 48 7 0 84 29 47 82 62 
81 3 20 47 84 0 52 67 75 2 
12 68 52 86 29 52 0 55 93 13 
77 21 6 1 47 67 55 0 29 72 
12 74 24 36 82 75 93 29 0 34 
38 5 25 100 62 2 13 72 34 0 
RBBRRBBRRB
